n_boats=80;
n_periods=20;
capacity=[5,4,3,3,2,7,3,3,10,9,6,9,4,7,7,3,10,3,5,4,4,7,2,10,1,3,9,7,6,6,7,7,4,8,2,7,5,9,2,6,9,4,1,6,9,2,1,4,5,6,9,10,10,10,7,5,3,5,3,7,10,10,4,5,4,10,8,6,7,9,3,4,10,8,8,5,7,3,5,9];
crew=[5,2,2,1,2,7,2,3,6,5,3,8,1,7,6,2,1,3,3,2,2,7,1,8,1,2,9,4,1,3,3,4,3,3,2,6,4,1,2,3,1,1,1,1,6,2,1,2,3,5,9,8,6,10,4,1,2,4,1,5,6,7,1,3,2,8,7,3,5,5,3,1,4,2,8,1,3,2,1,1];
